Version identifier: 12.10.0.0 | 2019-11-26 | 843d4de
CPXPARAM_WorkMem                                 28672
Tried aggregator 2 times.
Aggregator did 20 substitutions.
Reduced MIP has 73 rows, 90 columns, and 333 nonzeros.
Reduced MIP has 90 binaries, 0 generals, 0 SOSs, and 0 indicators.
Presolve time = 0,00 sec. (0,31 ticks)
Found incumbent of value 303,000000 after 0,00 sec. (0,53 ticks)
Probing time = 0,00 sec. (0,10 ticks)
Tried aggregator 1 time.
Detecting symmetries...
MIP Presolve eliminated 6 rows and 0 columns.
MIP Presolve added 12 rows and 0 columns.
Reduced MIP has 79 rows, 90 columns, and 339 nonzeros.
Reduced MIP has 90 binaries, 0 generals, 0 SOSs, and 0 indicators.
Presolve time = 0,00 sec. (0,39 ticks)
Probing time = 0,00 sec. (0,10 ticks)
Clique table members: 223.
MIP emphasis: balance optimality and feasibility.
MIP search method: dynamic search.
Parallel mode: deterministic, using up to 16 threads.
Root relaxation solution time = 0,00 sec. (0,12 ticks)

        Nodes                                         Cuts/
   Node  Left     Objective  IInf  Best Integer    Best Bound    ItCnt     Gap

*     0+    0                          303,0000        0,0000           100,00%
*     0+    0                          188,0000        0,0000           100,00%
*     0+    0                          183,0000        0,0000           100,00%
*     0+    0                          180,0000        0,0000           100,00%
      0     0      101,0000    37      180,0000      101,0000       12   43,89%
*     0+    0                          174,0000      101,0000            41,95%
      0     0      101,0000    37      174,0000     Cuts: 119       36   41,95%
      0     0      101,0000    37      174,0000      Cuts: 69       57   41,95%
      0     0      101,0000    37      174,0000     Cuts: 102       87   41,95%
*     0+    0                          166,0000      101,0000            39,16%
      0     2      111,0667    30      166,0000      105,5000      109   36,45%
Elapsed time = 0,03 sec. (7,13 ticks, tree = 0,02 MB, solutions = 6)

Clique cuts applied:  31
Cover cuts applied:  58
Mixed integer rounding cuts applied:  1
Zero-half cuts applied:  1

Root node processing (before b&c):
  Real time             =    0,03 sec. (7,09 ticks)
Parallel b&c, 16 threads:
  Real time             =    0,02 sec. (4,55 ticks)
  Sync time (average)   =    0,01 sec.
  Wait time (average)   =    0,00 sec.
                          ------------
Total (root+branch&cut) =    0,05 sec. (11,64 ticks)
